(set-logic QF_BV)

(declare-const __ESBMC_ptr_obj_start_0 (_ BitVec 64))

(declare-const __ESBMC_ptr_obj_end_0 (_ BitVec 64))

(declare-const __ESBMC_ptr_obj_start_1 (_ BitVec 64))

(declare-const __ESBMC_ptr_obj_end_1 (_ BitVec 64))

(declare-const |smt_conv::__ESBMC_ptr_addr_range_0..start0| (_ BitVec 64))

(declare-const |smt_conv::__ESBMC_ptr_addr_range_0..end0| (_ BitVec 64))

(declare-const |smt_conv::__ESBMC_ptr_addr_range_1..start0| (_ BitVec 64))

(declare-const |smt_conv::__ESBMC_ptr_addr_range_1..end0| (_ BitVec 64))

(declare-const |smt_conv::smt_conv::collate_array_vals::3..start0| (_ BitVec 64))

(declare-const |smt_conv::smt_conv::collate_array_vals::3..end0| (_ BitVec 64))

(declare-const |smt_conv::smt_conv::collate_array_vals::4..start0| (_ BitVec 64))

(declare-const |smt_conv::smt_conv::collate_array_vals::4..end0| (_ BitVec 64))

(declare-const |smt_conv::smt_conv::collate_array_vals::7..start0| (_ BitVec 64))

(declare-const |smt_conv::smt_conv::collate_array_vals::7..end0| (_ BitVec 64))

(declare-const |c:@F@main::$tmp::return_value$___VERIFIER_nondet_int$1?1!0&0#1| (_ BitVec 32))

(declare-const |nondet$symex::nondet29| (_ BitVec 32))

(declare-const |c:RecursiveNonterminating-1.c@200@F@main@n?1!0&0#1| (_ BitVec 32))

(declare-const |goto_symex::guard?0!0&0#1| (_ BitVec 1))

(declare-const |c:RecursiveNonterminating-1.c@112@F@rec@x?1!0&0#1| (_ BitVec 32))

(declare-const |c:RecursiveNonterminating-1.c@119@F@rec@y?1!0&0#1| (_ BitVec 32))

(declare-const |goto_symex::guard?0!0&0#2| (_ BitVec 1))

(declare-const |c:RecursiveNonterminating-1.c@112@F@rec@x?2!0&0#1| (_ BitVec 32))

(declare-const |c:RecursiveNonterminating-1.c@119@F@rec@y?2!0&0#1| (_ BitVec 32))

(declare-const |goto_symex::guard?0!0&0#3| (_ BitVec 1))

(declare-const |c:RecursiveNonterminating-1.c@112@F@rec@x?3!0&0#1| (_ BitVec 32))

(declare-const |c:RecursiveNonterminating-1.c@119@F@rec@y?3!0&0#1| (_ BitVec 32))

(declare-const |goto_symex::guard?0!0&0#4| (_ BitVec 1))

(declare-const |c:RecursiveNonterminating-1.c@112@F@rec@x?4!0&0#1| (_ BitVec 32))

(declare-const |c:RecursiveNonterminating-1.c@119@F@rec@y?4!0&0#1| (_ BitVec 32))

(declare-const |goto_symex::guard?0!0&0#5| (_ BitVec 1))

(declare-const |c:RecursiveNonterminating-1.c@112@F@rec@x?5!0&0#1| (_ BitVec 32))

(declare-const |c:RecursiveNonterminating-1.c@119@F@rec@y?5!0&0#1| (_ BitVec 32))

(declare-const |goto_symex::guard?0!0&0#6| (_ BitVec 1))

(declare-const |c:RecursiveNonterminating-1.c@112@F@rec@x?6!0&0#1| (_ BitVec 32))

(declare-const |c:RecursiveNonterminating-1.c@119@F@rec@y?6!0&0#1| (_ BitVec 32))

(declare-const |goto_symex::guard?0!0&0#7| (_ BitVec 1))

(declare-const |c:RecursiveNonterminating-1.c@112@F@rec@x?7!0&0#1| (_ BitVec 32))

(declare-const |c:RecursiveNonterminating-1.c@119@F@rec@y?7!0&0#1| (_ BitVec 32))

(declare-const |goto_symex::guard?0!0&0#8| (_ BitVec 1))

(declare-const |c:RecursiveNonterminating-1.c@112@F@rec@x?8!0&0#1| (_ BitVec 32))

(declare-const |c:RecursiveNonterminating-1.c@119@F@rec@y?8!0&0#1| (_ BitVec 32))

(declare-const |goto_symex::guard?0!0&0#9| (_ BitVec 1))

(declare-const |c:RecursiveNonterminating-1.c@112@F@rec@x?9!0&0#1| (_ BitVec 32))

(declare-const |c:RecursiveNonterminating-1.c@119@F@rec@y?9!0&0#1| (_ BitVec 32))

(declare-const |goto_symex::guard?0!0&0#10| (_ BitVec 1))

(declare-const |c:RecursiveNonterminating-1.c@112@F@rec@x?10!0&0#1| (_ BitVec 32))

(declare-const |c:RecursiveNonterminating-1.c@119@F@rec@y?10!0&0#1| (_ BitVec 32))

(declare-const |goto_symex::guard?0!0&0#11| (_ BitVec 1))

(declare-const |c:RecursiveNonterminating-1.c@112@F@rec@x?11!0&0#1| (_ BitVec 32))

(declare-const |c:RecursiveNonterminating-1.c@119@F@rec@y?11!0&0#1| (_ BitVec 32))

(declare-const |goto_symex::guard?0!0&0#12| (_ BitVec 1))

(declare-const |c:RecursiveNonterminating-1.c@112@F@rec@x?12!0&0#1| (_ BitVec 32))

(declare-const |c:RecursiveNonterminating-1.c@119@F@rec@y?12!0&0#1| (_ BitVec 32))

(declare-const |goto_symex::guard?0!0&0#13| (_ BitVec 1))

(declare-const |c:RecursiveNonterminating-1.c@112@F@rec@x?13!0&0#1| (_ BitVec 32))

(declare-const |c:RecursiveNonterminating-1.c@119@F@rec@y?13!0&0#1| (_ BitVec 32))

(declare-const |goto_symex::guard?0!0&0#14| (_ BitVec 1))

(declare-const |c:RecursiveNonterminating-1.c@112@F@rec@x?14!0&0#1| (_ BitVec 32))

(declare-const |c:RecursiveNonterminating-1.c@119@F@rec@y?14!0&0#1| (_ BitVec 32))

(declare-const |goto_symex::guard?0!0&0#15| (_ BitVec 1))

(declare-const |c:RecursiveNonterminating-1.c@112@F@rec@x?15!0&0#1| (_ BitVec 32))

(declare-const |c:RecursiveNonterminating-1.c@119@F@rec@y?15!0&0#1| (_ BitVec 32))

(declare-const |goto_symex::guard?0!0&0#16| (_ BitVec 1))

(declare-const |c:RecursiveNonterminating-1.c@112@F@rec@x?16!0&0#1| (_ BitVec 32))

(declare-const |c:RecursiveNonterminating-1.c@119@F@rec@y?16!0&0#1| (_ BitVec 32))

(declare-const |goto_symex::guard?0!0&0#17| (_ BitVec 1))

(declare-const |c:RecursiveNonterminating-1.c@112@F@rec@x?17!0&0#1| (_ BitVec 32))

(declare-const |c:RecursiveNonterminating-1.c@119@F@rec@y?17!0&0#1| (_ BitVec 32))

(declare-const |goto_symex::guard?0!0&0#18| (_ BitVec 1))

(declare-const |c:RecursiveNonterminating-1.c@112@F@rec@x?18!0&0#1| (_ BitVec 32))

(declare-const |c:RecursiveNonterminating-1.c@119@F@rec@y?18!0&0#1| (_ BitVec 32))

(declare-const |goto_symex::guard?0!0&0#19| (_ BitVec 1))

(declare-const |c:RecursiveNonterminating-1.c@112@F@rec@x?19!0&0#1| (_ BitVec 32))

(declare-const |c:RecursiveNonterminating-1.c@119@F@rec@y?19!0&0#1| (_ BitVec 32))

(declare-const |goto_symex::guard?0!0&0#20| (_ BitVec 1))

(declare-const |c:RecursiveNonterminating-1.c@112@F@rec@x?20!0&0#1| (_ BitVec 32))

(declare-const |c:RecursiveNonterminating-1.c@119@F@rec@y?20!0&0#1| (_ BitVec 32))

(declare-const |goto_symex::guard?0!0&0#21| (_ BitVec 1))

(declare-const |c:RecursiveNonterminating-1.c@112@F@rec@x?21!0&0#1| (_ BitVec 32))

(declare-const |c:RecursiveNonterminating-1.c@119@F@rec@y?21!0&0#1| (_ BitVec 32))

(declare-const |goto_symex::guard?0!0&0#22| (_ BitVec 1))

(declare-const |c:RecursiveNonterminating-1.c@112@F@rec@x?22!0&0#1| (_ BitVec 32))

(declare-const |c:RecursiveNonterminating-1.c@119@F@rec@y?22!0&0#1| (_ BitVec 32))

(declare-const |goto_symex::guard?0!0&0#23| (_ BitVec 1))

(declare-const |c:RecursiveNonterminating-1.c@112@F@rec@x?23!0&0#1| (_ BitVec 32))

(declare-const |c:RecursiveNonterminating-1.c@119@F@rec@y?23!0&0#1| (_ BitVec 32))

(declare-const |goto_symex::guard?0!0&0#24| (_ BitVec 1))

(declare-const |c:RecursiveNonterminating-1.c@112@F@rec@x?24!0&0#1| (_ BitVec 32))

(declare-const |c:RecursiveNonterminating-1.c@119@F@rec@y?24!0&0#1| (_ BitVec 32))

(declare-const |goto_symex::guard?0!0&0#25| (_ BitVec 1))

(declare-const |c:RecursiveNonterminating-1.c@112@F@rec@x?25!0&0#1| (_ BitVec 32))

(declare-const |c:RecursiveNonterminating-1.c@119@F@rec@y?25!0&0#1| (_ BitVec 32))

(declare-const |goto_symex::guard?0!0&0#26| (_ BitVec 1))

(declare-const |c:RecursiveNonterminating-1.c@112@F@rec@x?26!0&0#1| (_ BitVec 32))

(declare-const |c:RecursiveNonterminating-1.c@119@F@rec@y?26!0&0#1| (_ BitVec 32))

(declare-const |goto_symex::guard?0!0&0#27| (_ BitVec 1))

(declare-const |c:RecursiveNonterminating-1.c@112@F@rec@x?27!0&0#1| (_ BitVec 32))

(declare-const |c:RecursiveNonterminating-1.c@119@F@rec@y?27!0&0#1| (_ BitVec 32))

(declare-const |goto_symex::guard?0!0&0#28| (_ BitVec 1))

(declare-const |c:RecursiveNonterminating-1.c@112@F@rec@x?28!0&0#1| (_ BitVec 32))

(declare-const |c:RecursiveNonterminating-1.c@119@F@rec@y?28!0&0#1| (_ BitVec 32))

(declare-const |goto_symex::guard?0!0&0#29| (_ BitVec 1))

(declare-const |c:RecursiveNonterminating-1.c@112@F@rec@x?29!0&0#1| (_ BitVec 32))

(declare-const |c:RecursiveNonterminating-1.c@119@F@rec@y?29!0&0#1| (_ BitVec 32))

(declare-const |goto_symex::guard?0!0&0#30| (_ BitVec 1))

(declare-const |c:RecursiveNonterminating-1.c@112@F@rec@x?30!0&0#1| (_ BitVec 32))

(declare-const |goto_symex::guard?0!0&0#31| (_ BitVec 1))

(declare-const |execution_statet::guard_exec?0!0| (_ BitVec 1))

(assert 

 (= __ESBMC_ptr_obj_start_0 #b0000000000000000000000000000000000000000000000000000000000000000))

(assert 

 (= #b0000000000000000000000000000000000000000000000000000000000000000 __ESBMC_ptr_obj_end_0))

(assert 

 (= __ESBMC_ptr_obj_start_1 #b0000000000000000000000000000000000000000000000000000000000000001))

(assert 

 (= #b1111111111111111111111111111111111111111111111111111111111111111 __ESBMC_ptr_obj_end_1))

(assert 

 (= __ESBMC_ptr_obj_end_0 |smt_conv::__ESBMC_ptr_addr_range_0..end0|))

(assert 

 (= __ESBMC_ptr_obj_start_0 |smt_conv::__ESBMC_ptr_addr_range_0..start0|))

(assert 

 (= __ESBMC_ptr_obj_end_1 |smt_conv::__ESBMC_ptr_addr_range_1..end0|))

(assert 

 (= __ESBMC_ptr_obj_start_1 |smt_conv::__ESBMC_ptr_addr_range_1..start0|))

(assert 

 (= |smt_conv::smt_conv::collate_array_vals::3..end0| |smt_conv::smt_conv::collate_array_vals::4..end0|))

(assert 

 (= |smt_conv::smt_conv::collate_array_vals::3..start0| |smt_conv::smt_conv::collate_array_vals::4..start0|))

(assert 

 (= __ESBMC_ptr_obj_end_0 |smt_conv::smt_conv::collate_array_vals::7..end0|))

(assert 

 (= __ESBMC_ptr_obj_start_0 |smt_conv::smt_conv::collate_array_vals::7..start0|))

(assert 

 (= |c:@F@main::$tmp::return_value$___VERIFIER_nondet_int$1?1!0&0#1| |nondet$symex::nondet29|))

(assert 

 (= |c:@F@main::$tmp::return_value$___VERIFIER_nondet_int$1?1!0&0#1| |c:RecursiveNonterminating-1.c@200@F@main@n?1!0&0#1|))

(assert 

 (= |goto_symex::guard?0!0&0#1| 

  (ite 

   (bvslt #b01111111111111111111111111111110 |c:RecursiveNonterminating-1.c@200@F@main@n?1!0&0#1|) #b1 #b0)))

(assert 

 (= |c:RecursiveNonterminating-1.c@200@F@main@n?1!0&0#1| |c:RecursiveNonterminating-1.c@112@F@rec@x?1!0&0#1|))

(assert 

 (= |c:RecursiveNonterminating-1.c@119@F@rec@y?1!0&0#1| 

  (bvadd |c:RecursiveNonterminating-1.c@200@F@main@n?1!0&0#1| #b00000000000000000000000000000001)))

(assert 

 (= |goto_symex::guard?0!0&0#2| 

  (ite 

   (and 

    (not 

     (bvslt |c:RecursiveNonterminating-1.c@112@F@rec@x?1!0&0#1| #b11111111111111111111111111010110)) 

    (not 

     (bvslt #b00000000000000000000000000010111 |c:RecursiveNonterminating-1.c@112@F@rec@x?1!0&0#1|))) #b1 #b0)))

(assert 

 (= |c:RecursiveNonterminating-1.c@112@F@rec@x?2!0&0#1| 

  (bvadd #b11111111111111111111111111111110 

   (bvmul |c:RecursiveNonterminating-1.c@119@F@rec@y?1!0&0#1| #b00000000000000000000000000000010))))

(assert 

 (= |c:RecursiveNonterminating-1.c@119@F@rec@y?2!0&0#1| 

  (bvadd |c:RecursiveNonterminating-1.c@112@F@rec@x?1!0&0#1| #b00000000000000000000000000000001)))

(assert 

 (= |goto_symex::guard?0!0&0#3| 

  (ite 

   (and 

    (not 

     (bvslt |c:RecursiveNonterminating-1.c@112@F@rec@x?2!0&0#1| #b11111111111111111111111111010110)) 

    (not 

     (bvslt #b00000000000000000000000000010111 |c:RecursiveNonterminating-1.c@112@F@rec@x?2!0&0#1|))) #b1 #b0)))

(assert 

 (= |c:RecursiveNonterminating-1.c@112@F@rec@x?3!0&0#1| 

  (bvadd #b11111111111111111111111111111110 

   (bvmul #b00000000000000000000000000000010 |c:RecursiveNonterminating-1.c@119@F@rec@y?2!0&0#1|))))

(assert 

 (= |c:RecursiveNonterminating-1.c@119@F@rec@y?3!0&0#1| 

  (bvadd #b00000000000000000000000000000001 |c:RecursiveNonterminating-1.c@112@F@rec@x?2!0&0#1|)))

(assert 

 (= |goto_symex::guard?0!0&0#4| 

  (ite 

   (and 

    (not 

     (bvslt |c:RecursiveNonterminating-1.c@112@F@rec@x?3!0&0#1| #b11111111111111111111111111010110)) 

    (not 

     (bvslt #b00000000000000000000000000010111 |c:RecursiveNonterminating-1.c@112@F@rec@x?3!0&0#1|))) #b1 #b0)))

(assert 

 (= |c:RecursiveNonterminating-1.c@112@F@rec@x?4!0&0#1| 

  (bvadd #b11111111111111111111111111111110 

   (bvmul #b00000000000000000000000000000010 |c:RecursiveNonterminating-1.c@119@F@rec@y?3!0&0#1|))))

(assert 

 (= |c:RecursiveNonterminating-1.c@119@F@rec@y?4!0&0#1| 

  (bvadd #b00000000000000000000000000000001 |c:RecursiveNonterminating-1.c@112@F@rec@x?3!0&0#1|)))

(assert 

 (= |goto_symex::guard?0!0&0#5| 

  (ite 

   (and 

    (not 

     (bvslt |c:RecursiveNonterminating-1.c@112@F@rec@x?4!0&0#1| #b11111111111111111111111111010110)) 

    (not 

     (bvslt #b00000000000000000000000000010111 |c:RecursiveNonterminating-1.c@112@F@rec@x?4!0&0#1|))) #b1 #b0)))

(assert 

 (= |c:RecursiveNonterminating-1.c@112@F@rec@x?5!0&0#1| 

  (bvadd #b11111111111111111111111111111110 

   (bvmul #b00000000000000000000000000000010 |c:RecursiveNonterminating-1.c@119@F@rec@y?4!0&0#1|))))

(assert 

 (= |c:RecursiveNonterminating-1.c@119@F@rec@y?5!0&0#1| 

  (bvadd #b00000000000000000000000000000001 |c:RecursiveNonterminating-1.c@112@F@rec@x?4!0&0#1|)))

(assert 

 (= |goto_symex::guard?0!0&0#6| 

  (ite 

   (and 

    (not 

     (bvslt |c:RecursiveNonterminating-1.c@112@F@rec@x?5!0&0#1| #b11111111111111111111111111010110)) 

    (not 

     (bvslt #b00000000000000000000000000010111 |c:RecursiveNonterminating-1.c@112@F@rec@x?5!0&0#1|))) #b1 #b0)))

(assert 

 (= |c:RecursiveNonterminating-1.c@112@F@rec@x?6!0&0#1| 

  (bvadd #b11111111111111111111111111111110 

   (bvmul #b00000000000000000000000000000010 |c:RecursiveNonterminating-1.c@119@F@rec@y?5!0&0#1|))))

(assert 

 (= |c:RecursiveNonterminating-1.c@119@F@rec@y?6!0&0#1| 

  (bvadd #b00000000000000000000000000000001 |c:RecursiveNonterminating-1.c@112@F@rec@x?5!0&0#1|)))

(assert 

 (= |goto_symex::guard?0!0&0#7| 

  (ite 

   (and 

    (not 

     (bvslt |c:RecursiveNonterminating-1.c@112@F@rec@x?6!0&0#1| #b11111111111111111111111111010110)) 

    (not 

     (bvslt #b00000000000000000000000000010111 |c:RecursiveNonterminating-1.c@112@F@rec@x?6!0&0#1|))) #b1 #b0)))

(assert 

 (= |c:RecursiveNonterminating-1.c@112@F@rec@x?7!0&0#1| 

  (bvadd #b11111111111111111111111111111110 

   (bvmul #b00000000000000000000000000000010 |c:RecursiveNonterminating-1.c@119@F@rec@y?6!0&0#1|))))

(assert 

 (= |c:RecursiveNonterminating-1.c@119@F@rec@y?7!0&0#1| 

  (bvadd #b00000000000000000000000000000001 |c:RecursiveNonterminating-1.c@112@F@rec@x?6!0&0#1|)))

(assert 

 (= |goto_symex::guard?0!0&0#8| 

  (ite 

   (and 

    (not 

     (bvslt |c:RecursiveNonterminating-1.c@112@F@rec@x?7!0&0#1| #b11111111111111111111111111010110)) 

    (not 

     (bvslt #b00000000000000000000000000010111 |c:RecursiveNonterminating-1.c@112@F@rec@x?7!0&0#1|))) #b1 #b0)))

(assert 

 (= |c:RecursiveNonterminating-1.c@112@F@rec@x?8!0&0#1| 

  (bvadd #b11111111111111111111111111111110 

   (bvmul #b00000000000000000000000000000010 |c:RecursiveNonterminating-1.c@119@F@rec@y?7!0&0#1|))))

(assert 

 (= |c:RecursiveNonterminating-1.c@119@F@rec@y?8!0&0#1| 

  (bvadd #b00000000000000000000000000000001 |c:RecursiveNonterminating-1.c@112@F@rec@x?7!0&0#1|)))

(assert 

 (= |goto_symex::guard?0!0&0#9| 

  (ite 

   (and 

    (not 

     (bvslt |c:RecursiveNonterminating-1.c@112@F@rec@x?8!0&0#1| #b11111111111111111111111111010110)) 

    (not 

     (bvslt #b00000000000000000000000000010111 |c:RecursiveNonterminating-1.c@112@F@rec@x?8!0&0#1|))) #b1 #b0)))

(assert 

 (= |c:RecursiveNonterminating-1.c@112@F@rec@x?9!0&0#1| 

  (bvadd #b11111111111111111111111111111110 

   (bvmul #b00000000000000000000000000000010 |c:RecursiveNonterminating-1.c@119@F@rec@y?8!0&0#1|))))

(assert 

 (= |c:RecursiveNonterminating-1.c@119@F@rec@y?9!0&0#1| 

  (bvadd #b00000000000000000000000000000001 |c:RecursiveNonterminating-1.c@112@F@rec@x?8!0&0#1|)))

(assert 

 (= |goto_symex::guard?0!0&0#10| 

  (ite 

   (and 

    (not 

     (bvslt |c:RecursiveNonterminating-1.c@112@F@rec@x?9!0&0#1| #b11111111111111111111111111010110)) 

    (not 

     (bvslt #b00000000000000000000000000010111 |c:RecursiveNonterminating-1.c@112@F@rec@x?9!0&0#1|))) #b1 #b0)))

(assert 

 (= |c:RecursiveNonterminating-1.c@112@F@rec@x?10!0&0#1| 

  (bvadd #b11111111111111111111111111111110 

   (bvmul #b00000000000000000000000000000010 |c:RecursiveNonterminating-1.c@119@F@rec@y?9!0&0#1|))))

(assert 

 (= |c:RecursiveNonterminating-1.c@119@F@rec@y?10!0&0#1| 

  (bvadd #b00000000000000000000000000000001 |c:RecursiveNonterminating-1.c@112@F@rec@x?9!0&0#1|)))

(assert 

 (= |goto_symex::guard?0!0&0#11| 

  (ite 

   (and 

    (not 

     (bvslt |c:RecursiveNonterminating-1.c@112@F@rec@x?10!0&0#1| #b11111111111111111111111111010110)) 

    (not 

     (bvslt #b00000000000000000000000000010111 |c:RecursiveNonterminating-1.c@112@F@rec@x?10!0&0#1|))) #b1 #b0)))

(assert 

 (= |c:RecursiveNonterminating-1.c@112@F@rec@x?11!0&0#1| 

  (bvadd #b11111111111111111111111111111110 

   (bvmul #b00000000000000000000000000000010 |c:RecursiveNonterminating-1.c@119@F@rec@y?10!0&0#1|))))

(assert 

 (= |c:RecursiveNonterminating-1.c@119@F@rec@y?11!0&0#1| 

  (bvadd #b00000000000000000000000000000001 |c:RecursiveNonterminating-1.c@112@F@rec@x?10!0&0#1|)))

(assert 

 (= |goto_symex::guard?0!0&0#12| 

  (ite 

   (and 

    (not 

     (bvslt |c:RecursiveNonterminating-1.c@112@F@rec@x?11!0&0#1| #b11111111111111111111111111010110)) 

    (not 

     (bvslt #b00000000000000000000000000010111 |c:RecursiveNonterminating-1.c@112@F@rec@x?11!0&0#1|))) #b1 #b0)))

(assert 

 (= |c:RecursiveNonterminating-1.c@112@F@rec@x?12!0&0#1| 

  (bvadd #b11111111111111111111111111111110 

   (bvmul #b00000000000000000000000000000010 |c:RecursiveNonterminating-1.c@119@F@rec@y?11!0&0#1|))))

(assert 

 (= |c:RecursiveNonterminating-1.c@119@F@rec@y?12!0&0#1| 

  (bvadd #b00000000000000000000000000000001 |c:RecursiveNonterminating-1.c@112@F@rec@x?11!0&0#1|)))

(assert 

 (= |goto_symex::guard?0!0&0#13| 

  (ite 

   (and 

    (not 

     (bvslt |c:RecursiveNonterminating-1.c@112@F@rec@x?12!0&0#1| #b11111111111111111111111111010110)) 

    (not 

     (bvslt #b00000000000000000000000000010111 |c:RecursiveNonterminating-1.c@112@F@rec@x?12!0&0#1|))) #b1 #b0)))

(assert 

 (= |c:RecursiveNonterminating-1.c@112@F@rec@x?13!0&0#1| 

  (bvadd #b11111111111111111111111111111110 

   (bvmul #b00000000000000000000000000000010 |c:RecursiveNonterminating-1.c@119@F@rec@y?12!0&0#1|))))

(assert 

 (= |c:RecursiveNonterminating-1.c@119@F@rec@y?13!0&0#1| 

  (bvadd #b00000000000000000000000000000001 |c:RecursiveNonterminating-1.c@112@F@rec@x?12!0&0#1|)))

(assert 

 (= |goto_symex::guard?0!0&0#14| 

  (ite 

   (and 

    (not 

     (bvslt |c:RecursiveNonterminating-1.c@112@F@rec@x?13!0&0#1| #b11111111111111111111111111010110)) 

    (not 

     (bvslt #b00000000000000000000000000010111 |c:RecursiveNonterminating-1.c@112@F@rec@x?13!0&0#1|))) #b1 #b0)))

(assert 

 (= |c:RecursiveNonterminating-1.c@112@F@rec@x?14!0&0#1| 

  (bvadd #b11111111111111111111111111111110 

   (bvmul #b00000000000000000000000000000010 |c:RecursiveNonterminating-1.c@119@F@rec@y?13!0&0#1|))))

(assert 

 (= |c:RecursiveNonterminating-1.c@119@F@rec@y?14!0&0#1| 

  (bvadd #b00000000000000000000000000000001 |c:RecursiveNonterminating-1.c@112@F@rec@x?13!0&0#1|)))

(assert 

 (= |goto_symex::guard?0!0&0#15| 

  (ite 

   (and 

    (not 

     (bvslt |c:RecursiveNonterminating-1.c@112@F@rec@x?14!0&0#1| #b11111111111111111111111111010110)) 

    (not 

     (bvslt #b00000000000000000000000000010111 |c:RecursiveNonterminating-1.c@112@F@rec@x?14!0&0#1|))) #b1 #b0)))

(assert 

 (= |c:RecursiveNonterminating-1.c@112@F@rec@x?15!0&0#1| 

  (bvadd #b11111111111111111111111111111110 

   (bvmul #b00000000000000000000000000000010 |c:RecursiveNonterminating-1.c@119@F@rec@y?14!0&0#1|))))

(assert 

 (= |c:RecursiveNonterminating-1.c@119@F@rec@y?15!0&0#1| 

  (bvadd #b00000000000000000000000000000001 |c:RecursiveNonterminating-1.c@112@F@rec@x?14!0&0#1|)))

(assert 

 (= |goto_symex::guard?0!0&0#16| 

  (ite 

   (and 

    (not 

     (bvslt |c:RecursiveNonterminating-1.c@112@F@rec@x?15!0&0#1| #b11111111111111111111111111010110)) 

    (not 

     (bvslt #b00000000000000000000000000010111 |c:RecursiveNonterminating-1.c@112@F@rec@x?15!0&0#1|))) #b1 #b0)))

(assert 

 (= |c:RecursiveNonterminating-1.c@112@F@rec@x?16!0&0#1| 

  (bvadd #b11111111111111111111111111111110 

   (bvmul #b00000000000000000000000000000010 |c:RecursiveNonterminating-1.c@119@F@rec@y?15!0&0#1|))))

(assert 

 (= |c:RecursiveNonterminating-1.c@119@F@rec@y?16!0&0#1| 

  (bvadd #b00000000000000000000000000000001 |c:RecursiveNonterminating-1.c@112@F@rec@x?15!0&0#1|)))

(assert 

 (= |goto_symex::guard?0!0&0#17| 

  (ite 

   (and 

    (not 

     (bvslt |c:RecursiveNonterminating-1.c@112@F@rec@x?16!0&0#1| #b11111111111111111111111111010110)) 

    (not 

     (bvslt #b00000000000000000000000000010111 |c:RecursiveNonterminating-1.c@112@F@rec@x?16!0&0#1|))) #b1 #b0)))

(assert 

 (= |c:RecursiveNonterminating-1.c@112@F@rec@x?17!0&0#1| 

  (bvadd #b11111111111111111111111111111110 

   (bvmul #b00000000000000000000000000000010 |c:RecursiveNonterminating-1.c@119@F@rec@y?16!0&0#1|))))

(assert 

 (= |c:RecursiveNonterminating-1.c@119@F@rec@y?17!0&0#1| 

  (bvadd #b00000000000000000000000000000001 |c:RecursiveNonterminating-1.c@112@F@rec@x?16!0&0#1|)))

(assert 

 (= |goto_symex::guard?0!0&0#18| 

  (ite 

   (and 

    (not 

     (bvslt |c:RecursiveNonterminating-1.c@112@F@rec@x?17!0&0#1| #b11111111111111111111111111010110)) 

    (not 

     (bvslt #b00000000000000000000000000010111 |c:RecursiveNonterminating-1.c@112@F@rec@x?17!0&0#1|))) #b1 #b0)))

(assert 

 (= |c:RecursiveNonterminating-1.c@112@F@rec@x?18!0&0#1| 

  (bvadd #b11111111111111111111111111111110 

   (bvmul #b00000000000000000000000000000010 |c:RecursiveNonterminating-1.c@119@F@rec@y?17!0&0#1|))))

(assert 

 (= |c:RecursiveNonterminating-1.c@119@F@rec@y?18!0&0#1| 

  (bvadd #b00000000000000000000000000000001 |c:RecursiveNonterminating-1.c@112@F@rec@x?17!0&0#1|)))

(assert 

 (= |goto_symex::guard?0!0&0#19| 

  (ite 

   (and 

    (not 

     (bvslt |c:RecursiveNonterminating-1.c@112@F@rec@x?18!0&0#1| #b11111111111111111111111111010110)) 

    (not 

     (bvslt #b00000000000000000000000000010111 |c:RecursiveNonterminating-1.c@112@F@rec@x?18!0&0#1|))) #b1 #b0)))

(assert 

 (= |c:RecursiveNonterminating-1.c@112@F@rec@x?19!0&0#1| 

  (bvadd #b11111111111111111111111111111110 

   (bvmul #b00000000000000000000000000000010 |c:RecursiveNonterminating-1.c@119@F@rec@y?18!0&0#1|))))

(assert 

 (= |c:RecursiveNonterminating-1.c@119@F@rec@y?19!0&0#1| 

  (bvadd #b00000000000000000000000000000001 |c:RecursiveNonterminating-1.c@112@F@rec@x?18!0&0#1|)))

(assert 

 (= |goto_symex::guard?0!0&0#20| 

  (ite 

   (and 

    (not 

     (bvslt |c:RecursiveNonterminating-1.c@112@F@rec@x?19!0&0#1| #b11111111111111111111111111010110)) 

    (not 

     (bvslt #b00000000000000000000000000010111 |c:RecursiveNonterminating-1.c@112@F@rec@x?19!0&0#1|))) #b1 #b0)))

(assert 

 (= |c:RecursiveNonterminating-1.c@112@F@rec@x?20!0&0#1| 

  (bvadd #b11111111111111111111111111111110 

   (bvmul #b00000000000000000000000000000010 |c:RecursiveNonterminating-1.c@119@F@rec@y?19!0&0#1|))))

(assert 

 (= |c:RecursiveNonterminating-1.c@119@F@rec@y?20!0&0#1| 

  (bvadd #b00000000000000000000000000000001 |c:RecursiveNonterminating-1.c@112@F@rec@x?19!0&0#1|)))

(assert 

 (= |goto_symex::guard?0!0&0#21| 

  (ite 

   (and 

    (not 

     (bvslt |c:RecursiveNonterminating-1.c@112@F@rec@x?20!0&0#1| #b11111111111111111111111111010110)) 

    (not 

     (bvslt #b00000000000000000000000000010111 |c:RecursiveNonterminating-1.c@112@F@rec@x?20!0&0#1|))) #b1 #b0)))

(assert 

 (= |c:RecursiveNonterminating-1.c@112@F@rec@x?21!0&0#1| 

  (bvadd #b11111111111111111111111111111110 

   (bvmul #b00000000000000000000000000000010 |c:RecursiveNonterminating-1.c@119@F@rec@y?20!0&0#1|))))

(assert 

 (= |c:RecursiveNonterminating-1.c@119@F@rec@y?21!0&0#1| 

  (bvadd #b00000000000000000000000000000001 |c:RecursiveNonterminating-1.c@112@F@rec@x?20!0&0#1|)))

(assert 

 (= |goto_symex::guard?0!0&0#22| 

  (ite 

   (and 

    (not 

     (bvslt |c:RecursiveNonterminating-1.c@112@F@rec@x?21!0&0#1| #b11111111111111111111111111010110)) 

    (not 

     (bvslt #b00000000000000000000000000010111 |c:RecursiveNonterminating-1.c@112@F@rec@x?21!0&0#1|))) #b1 #b0)))

(assert 

 (= |c:RecursiveNonterminating-1.c@112@F@rec@x?22!0&0#1| 

  (bvadd #b11111111111111111111111111111110 

   (bvmul #b00000000000000000000000000000010 |c:RecursiveNonterminating-1.c@119@F@rec@y?21!0&0#1|))))

(assert 

 (= |c:RecursiveNonterminating-1.c@119@F@rec@y?22!0&0#1| 

  (bvadd #b00000000000000000000000000000001 |c:RecursiveNonterminating-1.c@112@F@rec@x?21!0&0#1|)))

(assert 

 (= |goto_symex::guard?0!0&0#23| 

  (ite 

   (and 

    (not 

     (bvslt |c:RecursiveNonterminating-1.c@112@F@rec@x?22!0&0#1| #b11111111111111111111111111010110)) 

    (not 

     (bvslt #b00000000000000000000000000010111 |c:RecursiveNonterminating-1.c@112@F@rec@x?22!0&0#1|))) #b1 #b0)))

(assert 

 (= |c:RecursiveNonterminating-1.c@112@F@rec@x?23!0&0#1| 

  (bvadd #b11111111111111111111111111111110 

   (bvmul #b00000000000000000000000000000010 |c:RecursiveNonterminating-1.c@119@F@rec@y?22!0&0#1|))))

(assert 

 (= |c:RecursiveNonterminating-1.c@119@F@rec@y?23!0&0#1| 

  (bvadd #b00000000000000000000000000000001 |c:RecursiveNonterminating-1.c@112@F@rec@x?22!0&0#1|)))

(assert 

 (= |goto_symex::guard?0!0&0#24| 

  (ite 

   (and 

    (not 

     (bvslt |c:RecursiveNonterminating-1.c@112@F@rec@x?23!0&0#1| #b11111111111111111111111111010110)) 

    (not 

     (bvslt #b00000000000000000000000000010111 |c:RecursiveNonterminating-1.c@112@F@rec@x?23!0&0#1|))) #b1 #b0)))

(assert 

 (= |c:RecursiveNonterminating-1.c@112@F@rec@x?24!0&0#1| 

  (bvadd #b11111111111111111111111111111110 

   (bvmul #b00000000000000000000000000000010 |c:RecursiveNonterminating-1.c@119@F@rec@y?23!0&0#1|))))

(assert 

 (= |c:RecursiveNonterminating-1.c@119@F@rec@y?24!0&0#1| 

  (bvadd #b00000000000000000000000000000001 |c:RecursiveNonterminating-1.c@112@F@rec@x?23!0&0#1|)))

(assert 

 (= |goto_symex::guard?0!0&0#25| 

  (ite 

   (and 

    (not 

     (bvslt |c:RecursiveNonterminating-1.c@112@F@rec@x?24!0&0#1| #b11111111111111111111111111010110)) 

    (not 

     (bvslt #b00000000000000000000000000010111 |c:RecursiveNonterminating-1.c@112@F@rec@x?24!0&0#1|))) #b1 #b0)))

(assert 

 (= |c:RecursiveNonterminating-1.c@112@F@rec@x?25!0&0#1| 

  (bvadd #b11111111111111111111111111111110 

   (bvmul #b00000000000000000000000000000010 |c:RecursiveNonterminating-1.c@119@F@rec@y?24!0&0#1|))))

(assert 

 (= |c:RecursiveNonterminating-1.c@119@F@rec@y?25!0&0#1| 

  (bvadd #b00000000000000000000000000000001 |c:RecursiveNonterminating-1.c@112@F@rec@x?24!0&0#1|)))

(assert 

 (= |goto_symex::guard?0!0&0#26| 

  (ite 

   (and 

    (not 

     (bvslt |c:RecursiveNonterminating-1.c@112@F@rec@x?25!0&0#1| #b11111111111111111111111111010110)) 

    (not 

     (bvslt #b00000000000000000000000000010111 |c:RecursiveNonterminating-1.c@112@F@rec@x?25!0&0#1|))) #b1 #b0)))

(assert 

 (= |c:RecursiveNonterminating-1.c@112@F@rec@x?26!0&0#1| 

  (bvadd #b11111111111111111111111111111110 

   (bvmul #b00000000000000000000000000000010 |c:RecursiveNonterminating-1.c@119@F@rec@y?25!0&0#1|))))

(assert 

 (= |c:RecursiveNonterminating-1.c@119@F@rec@y?26!0&0#1| 

  (bvadd #b00000000000000000000000000000001 |c:RecursiveNonterminating-1.c@112@F@rec@x?25!0&0#1|)))

(assert 

 (= |goto_symex::guard?0!0&0#27| 

  (ite 

   (and 

    (not 

     (bvslt |c:RecursiveNonterminating-1.c@112@F@rec@x?26!0&0#1| #b11111111111111111111111111010110)) 

    (not 

     (bvslt #b00000000000000000000000000010111 |c:RecursiveNonterminating-1.c@112@F@rec@x?26!0&0#1|))) #b1 #b0)))

(assert 

 (= |c:RecursiveNonterminating-1.c@112@F@rec@x?27!0&0#1| 

  (bvadd #b11111111111111111111111111111110 

   (bvmul #b00000000000000000000000000000010 |c:RecursiveNonterminating-1.c@119@F@rec@y?26!0&0#1|))))

(assert 

 (= |c:RecursiveNonterminating-1.c@119@F@rec@y?27!0&0#1| 

  (bvadd #b00000000000000000000000000000001 |c:RecursiveNonterminating-1.c@112@F@rec@x?26!0&0#1|)))

(assert 

 (= |goto_symex::guard?0!0&0#28| 

  (ite 

   (and 

    (not 

     (bvslt |c:RecursiveNonterminating-1.c@112@F@rec@x?27!0&0#1| #b11111111111111111111111111010110)) 

    (not 

     (bvslt #b00000000000000000000000000010111 |c:RecursiveNonterminating-1.c@112@F@rec@x?27!0&0#1|))) #b1 #b0)))

(assert 

 (= |c:RecursiveNonterminating-1.c@112@F@rec@x?28!0&0#1| 

  (bvadd #b11111111111111111111111111111110 

   (bvmul #b00000000000000000000000000000010 |c:RecursiveNonterminating-1.c@119@F@rec@y?27!0&0#1|))))

(assert 

 (= |c:RecursiveNonterminating-1.c@119@F@rec@y?28!0&0#1| 

  (bvadd #b00000000000000000000000000000001 |c:RecursiveNonterminating-1.c@112@F@rec@x?27!0&0#1|)))

(assert 

 (= |goto_symex::guard?0!0&0#29| 

  (ite 

   (and 

    (not 

     (bvslt |c:RecursiveNonterminating-1.c@112@F@rec@x?28!0&0#1| #b11111111111111111111111111010110)) 

    (not 

     (bvslt #b00000000000000000000000000010111 |c:RecursiveNonterminating-1.c@112@F@rec@x?28!0&0#1|))) #b1 #b0)))

(assert 

 (= |c:RecursiveNonterminating-1.c@112@F@rec@x?29!0&0#1| 

  (bvadd #b11111111111111111111111111111110 

   (bvmul #b00000000000000000000000000000010 |c:RecursiveNonterminating-1.c@119@F@rec@y?28!0&0#1|))))

(assert 

 (= |c:RecursiveNonterminating-1.c@119@F@rec@y?29!0&0#1| 

  (bvadd #b00000000000000000000000000000001 |c:RecursiveNonterminating-1.c@112@F@rec@x?28!0&0#1|)))

(assert 

 (= |goto_symex::guard?0!0&0#30| 

  (ite 

   (and 

    (not 

     (bvslt |c:RecursiveNonterminating-1.c@112@F@rec@x?29!0&0#1| #b11111111111111111111111111010110)) 

    (not 

     (bvslt #b00000000000000000000000000010111 |c:RecursiveNonterminating-1.c@112@F@rec@x?29!0&0#1|))) #b1 #b0)))

(assert 

 (= |c:RecursiveNonterminating-1.c@112@F@rec@x?30!0&0#1| 

  (bvadd #b11111111111111111111111111111110 

   (bvmul #b00000000000000000000000000000010 |c:RecursiveNonterminating-1.c@119@F@rec@y?29!0&0#1|))))

(assert 

 (= |goto_symex::guard?0!0&0#31| 

  (ite 

   (and 

    (not 

     (bvslt |c:RecursiveNonterminating-1.c@112@F@rec@x?30!0&0#1| #b11111111111111111111111111010110)) 

    (not 

     (bvslt #b00000000000000000000000000010111 |c:RecursiveNonterminating-1.c@112@F@rec@x?30!0&0#1|))) #b1 #b0)))

(assert (= |execution_statet::guard_exec?0!0| #b1))

(assert (= |goto_symex::guard?0!0&0#31| #b1))

(assert (= |goto_symex::guard?0!0&0#30| #b1))

(assert (= |goto_symex::guard?0!0&0#29| #b1))

(assert (= |goto_symex::guard?0!0&0#28| #b1))

(assert (= |goto_symex::guard?0!0&0#27| #b1))

(assert (= |goto_symex::guard?0!0&0#26| #b1))

(assert (= |goto_symex::guard?0!0&0#25| #b1))

(assert (= |goto_symex::guard?0!0&0#24| #b1))

(assert (= |goto_symex::guard?0!0&0#23| #b1))

(assert (= |goto_symex::guard?0!0&0#22| #b1))

(assert (= |goto_symex::guard?0!0&0#21| #b1))

(assert (= |goto_symex::guard?0!0&0#20| #b1))

(assert (= |goto_symex::guard?0!0&0#19| #b1))

(assert (= |goto_symex::guard?0!0&0#18| #b1))

(assert (= |goto_symex::guard?0!0&0#17| #b1))

(assert (= |goto_symex::guard?0!0&0#16| #b1))

(assert (= |goto_symex::guard?0!0&0#15| #b1))

(assert (= |goto_symex::guard?0!0&0#14| #b1))

(assert (= |goto_symex::guard?0!0&0#13| #b1))

(assert (= |goto_symex::guard?0!0&0#12| #b1))

(assert (= |goto_symex::guard?0!0&0#11| #b1))

(assert (= |goto_symex::guard?0!0&0#10| #b1))

(assert (= |goto_symex::guard?0!0&0#9| #b1))

(assert (= |goto_symex::guard?0!0&0#8| #b1))

(assert (= |goto_symex::guard?0!0&0#7| #b1))

(assert (= |goto_symex::guard?0!0&0#6| #b1))

(assert (= |goto_symex::guard?0!0&0#5| #b1))

(assert (= |goto_symex::guard?0!0&0#4| #b1))

(assert (= |goto_symex::guard?0!0&0#3| #b1))

(assert (= |goto_symex::guard?0!0&0#2| #b1))

(assert (= 

 (bvnot |goto_symex::guard?0!0&0#1|) #b1))

(check-sat)

(exit)
